#[ INIT
units		metal
dimension	3
boundary 	p p p
atom_style	atomic
variable 	dt equal 0.001
variable    HOME_FOLDER getenv HOME

#[ ATOM DEFINITION
read_data	slab.lammps-data

mass 1 58.6934  # Pt
mass 2 15.999   # O

pair_style grace pad_verbose
pair_coeff * * ${HOME_FOLDER}/.cache/grace/GRACE-1L-MP-r6 Pt O

neighbor	2.0 bin
neigh_modify	delay 0 every 1 check yes

#[ min_dist
compute dist all pair/local dist
compute  min_dist all reduce  min c_dist inputs local

#[ MINIMIZE

thermo_style custom step cpuremain temp pe  fmax c_min_dist press vol
thermo	1
thermo_modify flush yes
fix box_relax all box/relax aniso 0.0 vmax 0.05

min_style cg
minimize 0 1e-6 100 100

unfix box_relax

#[ MD

timestep $(dt)

# init T=2*T_target
velocity all create 600.0 123 mom yes rot yes dist gaussian

# thermostat + barostat
fix 2 all npt temp 500 500 0.1 aniso 0 0 0.1

# thermostat
# fix 2 all nvt temp 300 300 0.1

thermo_style custom step cpuremain temp pe fmax c_min_dist  press vol pxx pyy pzz pxy pxz pyz
thermo	10
thermo_modify flush yes
dump	mdmc_dump all custom 10 slab.dump  id type element xu yu zu 
dump_modify mdmc_dump element Pt O

run 1000

unfix 2
undump mdmc_dump